(set-logic ALL)
(set-option :produce-models true)
(declare-sort BoundSet 0)
(declare-sort UnboundSet 0)
(set-option :finite-model-find true)
(declare-fun IsSpeaking (BoundSet) Bool)
(declare-fun IsListening (BoundSet) Bool)
(declare-fun IsGiven (BoundSet BoundSet) Bool)
(assert (not (=> (exists ((b BoundSet)) (exists ((a BoundSet)) (and (IsSpeaking a) (IsListening b)))) (exists ((a BoundSet)) (exists ((c BoundSet)) (IsGiven c a))))))
(check-sat)
(get-model)